p tw 60 954
0 1
0 2
0 3
0 4
0 5
0 6
0 7
0 8
0 9
0 10
0 14
0 17
0 18
0 19
0 20
0 21
0 22
0 23
0 25
0 28
0 35
0 37
0 24
0 39
0 45
0 46
0 16
0 51
0 52
0 53
0 11
0 38
0 40
0 41
0 54
0 55
0 33
0 48
0 34
0 12
0 27
0 42
0 49
1 2
1 3
1 4
1 5
1 6
1 7
1 8
1 9
1 10
1 11
1 12
1 13
1 14
1 15
1 16
1 34
1 35
1 37
1 40
1 46
1 52
1 53
2 3
2 4
2 5
2 6
2 7
2 8
2 9
2 10
2 14
2 17
2 18
2 19
2 20
2 21
2 16
2 24
2 25
2 39
2 41
2 42
2 43
2 11
2 36
2 47
2 51
2 54
3 4
3 5
3 6
3 7
3 8
3 9
3 10
3 12
3 23
3 35
3 38
3 39
3 40
3 13
3 16
3 25
3 29
3 33
3 43
3 44
3 11
3 41
3 52
3 54
3 55
3 14
3 15
3 30
3 51
3 17
3 21
3 32
3 45
3 53
3 56
3 26
3 37
3 46
3 58
3 42
3 19
3 27
3 31
3 34
4 5
4 6
4 7
4 8
4 9
4 21
4 22
4 23
4 24
4 25
4 26
4 27
4 28
4 29
4 20
4 30
4 31
4 32
4 33
4 34
4 35
4 36
4 19
4 37
4 50
4 54
4 55
4 58
4 40
4 46
4 52
4 53
4 17
4 38
4 41
4 42
4 45
5 6
5 7
5 8
5 9
5 10
5 12
5 23
5 35
5 38
5 39
5 40
5 18
5 24
5 45
5 46
5 29
5 36
5 41
5 49
5 50
5 51
5 13
5 14
5 15
5 30
5 43
5 44
5 11
5 19
5 21
5 33
5 37
5 48
5 52
5 16
5 17
5 25
5 27
5 31
5 34
5 54
5 55
6 7
6 8
6 9
6 10
6 11
6 12
6 13
6 14
6 15
6 16
6 18
6 22
6 23
6 25
6 28
6 35
6 37
6 24
6 39
6 45
6 46
6 17
6 32
6 38
6 47
6 55
7 8
7 9
7 10
7 11
7 12
7 13
7 14
7 15
7 16
7 24
7 25
7 39
7 41
7 42
7 43
7 17
7 32
7 38
7 47
7 55
7 19
7 27
7 31
7 34
7 54
7 30
7 46
7 59
8 9
8 10
8 14
8 17
8 18
8 19
8 20
8 21
8 16
8 24
8 25
8 39
8 41
8 42
8 43
8 26
8 28
8 30
8 47
8 48
8 11
8 33
8 37
8 52
9 10
9 12
9 23
9 35
9 38
9 39
9 40
9 18
9 24
9 45
9 46
9 11
9 14
9 20
9 36
9 47
9 51
9 54
9 19
9 34
9 37
9 50
9 55
9 58
9 16
9 27
9 42
9 49
9 15
9 26
10 11
10 12
10 13
10 14
10 15
10 16
10 17
10 18
10 19
10 20
10 21
10 22
10 23
10 25
10 28
10 35
10 37
10 38
10 39
10 40
10 29
10 33
10 43
10 44
10 24
10 45
10 46
10 27
10 30
10 55
10 59
11 12
11 13
11 14
11 15
11 16
11 38
11 40
11 41
11 52
11 54
11 55
11 20
11 36
11 39
11 47
11 51
11 19
11 21
11 33
11 37
11 48
11 22
11 27
11 44
11 50
11 56
11 17
11 30
11 46
11 59
12 13
12 14
12 15
12 16
12 23
12 35
12 38
12 39
12 40
12 25
12 29
12 33
12 43
12 44
12 30
12 51
12 19
12 27
12 37
12 42
12 49
12 55
12 20
12 24
12 34
12 45
12 46
12 47
12 56
13 14
13 15
13 16
13 25
13 29
13 33
13 43
13 44
13 30
13 51
14 15
14 16
14 17
14 18
14 19
14 20
14 21
14 22
14 37
14 51
14 52
14 53
14 36
14 39
14 47
14 54
14 30
14 43
14 44
14 28
14 31
14 35
14 41
14 49
14 50
14 57
14 23
14 26
14 46
14 58
15 16
15 30
15 43
15 44
15 51
15 17
15 18
15 24
15 25
15 29
15 37
15 23
15 26
15 46
15 54
15 58
16 24
16 25
16 39
16 41
16 42
16 43
16 29
16 33
16 44
16 17
16 18
16 22
16 37
16 51
16 52
16 53
16 38
16 40
16 54
16 55
16 21
16 32
16 45
16 56
16 47
16 19
16 27
16 49
17 18
17 19
17 20
17 21
17 22
17 37
17 51
17 52
17 53
17 32
17 41
17 45
17 55
17 56
17 25
17 38
17 39
17 47
17 24
17 29
17 30
17 42
17 54
17 27
17 46
17 59
18 19
18 20
18 21
18 22
18 23
18 25
18 28
18 35
18 37
18 24
18 39
18 45
18 46
18 26
18 30
18 43
18 47
18 48
18 51
18 52
18 53
18 29
19 20
19 21
19 33
19 37
19 48
19 52
19 23
19 34
19 50
19 54
19 55
19 58
19 27
19 42
19 49
19 31
19 39
20 21
20 27
20 30
20 31
20 32
20 33
20 34
20 35
20 36
20 39
20 47
20 51
20 54
20 24
20 38
20 45
20 46
20 56
20 22
20 40
20 44
20 50
21 22
21 23
21 24
21 25
21 26
21 27
21 28
21 29
21 30
21 39
21 43
21 47
21 48
21 32
21 41
21 45
21 53
21 55
21 56
21 33
21 37
21 52
22 23
22 24
22 25
22 26
22 27
22 28
22 29
22 35
22 37
22 51
22 52
22 53
22 36
22 40
22 44
22 50
22 56
23 24
23 25
23 26
23 27
23 28
23 29
23 35
23 37
23 38
23 39
23 40
23 36
23 41
23 49
23 50
23 51
23 34
23 54
23 55
23 58
23 46
24 25
24 26
24 27
24 28
24 29
24 39
24 41
24 42
24 43
24 45
24 46
24 37
24 34
24 38
24 47
24 56
25 26
25 27
25 28
25 29
25 35
25 37
25 39
25 41
25 42
25 43
25 33
25 44
25 32
25 38
25 47
25 55
26 27
26 28
26 29
26 30
26 39
26 43
26 47
26 48
26 37
26 46
26 54
26 58
27 28
27 29
27 30
27 31
27 32
27 33
27 34
27 35
27 36
27 37
27 42
27 49
27 55
27 38
27 45
27 46
27 47
27 56
27 40
27 44
27 50
27 51
27 39
27 54
27 59
28 29
28 35
28 37
28 30
28 39
28 43
28 47
28 48
28 31
28 41
28 49
28 50
28 51
28 57
29 33
29 43
29 44
29 36
29 38
29 40
29 41
29 49
29 50
29 51
29 37
30 31
30 32
30 33
30 34
30 35
30 36
30 39
30 43
30 47
30 48
30 44
30 51
30 38
30 41
30 42
30 45
30 54
30 55
30 46
30 59
31 32
31 33
31 34
31 35
31 36
31 41
31 47
31 49
31 50
31 51
31 57
31 39
31 54
31 55
32 33
32 34
32 35
32 36
32 41
32 45
32 53
32 55
32 56
32 38
32 39
32 47
33 34
33 35
33 36
33 43
33 44
33 37
33 48
33 52
34 35
34 36
34 37
34 50
34 54
34 55
34 58
34 40
34 46
34 52
34 53
34 38
34 45
34 47
34 56
34 39
35 36
35 37
35 38
35 39
35 40
35 41
35 47
35 49
35 50
35 51
35 57
35 46
35 52
35 53
36 38
36 40
36 41
36 49
36 50
36 51
36 39
36 47
36 54
36 44
36 56
37 51
37 52
37 53
37 48
37 50
37 54
37 55
37 58
37 40
37 46
37 42
37 49
38 39
38 40
38 41
38 49
38 50
38 51
38 52
38 54
38 55
38 47
38 45
38 46
38 56
38 42
39 40
39 41
39 42
39 43
39 45
39 46
39 47
39 48
39 51
39 54
39 55
39 59
40 41
40 49
40 50
40 51
40 52
40 54
40 55
40 46
40 53
40 44
40 56
41 42
41 43
41 49
41 50
41 51
41 52
41 54
41 55
41 45
41 53
41 56
41 47
41 57
42 43
42 49
42 55
42 45
42 54
43 44
43 47
43 48
43 51
44 51
44 50
44 56
45 46
45 53
45 55
45 56
45 47
45 54
46 52
46 53
46 54
46 58
46 47
46 56
46 55
46 59
47 48
47 51
47 54
47 55
47 49
47 50
47 57
47 56
48 52
49 50
49 51
49 57
49 55
50 51
50 57
50 54
50 55
50 58
50 56
51 52
51 53
51 54
51 57
51 56
52 53
52 54
52 55
53 55
53 56
54 55
54 58
55 56
55 58
55 59
